NAME: I12487-n28-k4
COMMENT : (Fake et al, No of trucks: 4, Optimal value: )
TYPE : CVRP
DIMENSION : 28
EDGE_WEIGHT_TYPE : EUC_2D
CAPACITY : 13
NODE_COORD_SECTION
1 285 636
2 180 400
3 763 177
4 85 518
5 21 871
6 848 200
7 159 609
8 926 677
9 172 758
10 485 812
11 574 628
12 551 631
13 933 768
14 917 336
15 361 979
16 896 981
17 480 774
18 485 608
19 387 319
20 894 653
21 701 455
22 357 185
23 856 458
24 219 32
25 22 257
26 843 683
27 347 844
28 746 67
DEMAND_SECTION
1 0
2 2
3 2
4 1
5 2
6 2
7 2
8 2
9 2
10 2
11 1
12 1
13 2
14 2
15 2
16 2
17 1
18 2
19 2
20 1
21 1
22 1
23 3
24 1
25 3
26 1
27 1
28 1
DEPOT_SECTION
 1
 -1
 EOF 